; benchmark generated from python API
(set-info :status unknown)
(declare-fun S_4 () Real)
(declare-fun A_0 () Real)
(declare-fun A_4 () Real)
(declare-fun Q_4 () Real)
(declare-fun A_3 () Real)
(declare-fun A_2 () Real)
(declare-fun A_1 () Real)
(declare-fun S_3 () Real)
(declare-fun S_2 () Real)
(declare-fun S_1 () Real)
(declare-fun S_0 () Real)
(declare-fun C () Real)
(declare-fun B () Real)
(declare-fun a () Real)
(declare-fun L0 () Real)
(assert
 (exists ((I_0 Real) (I_1 Real) (I_2 Real) (I_3 Real) (I_4 Real) (L_0 Real) (L_1 Real) (L_2 Real) (L_3 Real) (L_4 Real) )(let (($x125 (>= A_4 A_3)))
 (let (($x124 (>= A_3 A_2)))
 (let (($x123 (>= A_2 A_1)))
 (let (($x122 (>= A_1 A_0)))
 (let (($x120 (>= S_4 S_3)))
 (let (($x117 (>= S_3 S_2)))
 (let (($x114 (>= S_2 S_1)))
 (let (($x111 (>= S_1 S_0)))
 (let ((?x142 (- A_4 L_4)))
 (let ((?x86 (* C 1.0)))
 (let ((?x156 (+ I_3 ?x86)))
 (let (($x164 (= I_3 (ite (< (+ I_2 ?x86) (- A_3 L_3)) (+ I_2 ?x86) (- A_3 L_3)))))
 (let (($x169 (= I_2 (ite (< (+ I_1 ?x86) (- A_2 L_2)) (+ I_1 ?x86) (- A_2 L_2)))))
 (let (($x174 (= I_1 (ite (< (+ I_0 ?x86) (- A_1 L_1)) (+ I_0 ?x86) (- A_1 L_1)))))
 (let (($x178 (> (- (- A_4 L_3) I_4) B)))
 (let (($x188 (> (- (- A_3 L_2) I_3) B)))
 (let (($x198 (> (- (- A_2 L_1) I_2) B)))
 (let (($x208 (> (- (- A_1 L_0) I_1) B)))
 (let (($x45 (= a 1.0)))
 (let ((?x41 (* 5.0 a)))
 (let (($x43 (>= B ?x41)))
 (let (($x42 (>= C ?x41)))
 (let (($x37 (>= L0 0.0)))
 (let (($x217 (>= L_0 0.0)))
 (and $x217 (>= L_0 L0) $x37 (<= I_0 (- A_0 L_0)) $x42 $x43 $x45 (=> $x208 (= L_1 (- (- A_1 I_1) B))) (=> (not $x208) (= L_1 L_0)) (=> $x198 (= L_2 (- (- A_2 I_2) B))) (=> (not $x198) (= L_2 L_1)) (=> $x188 (= L_3 (- (- A_3 I_3) B))) (=> (not $x188) (= L_3 L_2)) (=> $x178 (= L_4 (- (- A_4 I_4) B))) (=> (not $x178) (= L_4 L_3)) $x174 $x169 $x164 (= I_4 (ite (< ?x156 ?x142) ?x156 ?x142)) (>= S_0 (- I_0 ?x86)) (<= S_0 I_0) (>= S_1 I_0) $x111 (<= S_1 I_1) (>= S_2 I_1) $x114 (<= S_2 I_2) (>= S_3 I_2) $x117 (<= S_3 I_3) (>= S_4 I_3) $x120 (<= S_4 I_4) $x122 $x123 $x124 $x125 (= Q_4 (- ?x142 I_4)) (> (- A_0 L_0) S_4)))))))))))))))))))))))))))
 )
(check-sat)
